8320
1, 44, 35, 34, 36, 39, 37, 40, 38, 48, 24, 5, 6, 15, 4, 43, 33, 51, 12, 11, 52, 14, 13, 27, 47, 26, 28, 25, 46, 16, 29, 50, 20, 23, 30, 2, 7, 42, 21, 31, 18, 17, 3, 41, 8, 9, 10, 19, 45, 32, 49, 22
